2563
2706
2731 
2669
2749 
3244
3046
3188
3092
2984
3430
3492
3681 
3394 
3343 
3751
3814
3844 
3764
3703
4380 
4725 
4668 
4648 
4164 
4647 
4848 
4692 
4691 
4732 
5640 
5927 
5728 
5385 
5635 
5621 
5851 
5713 
5747 
5577 
3248
3390
3441
3475
3266
4035
3942
3763
3710
3729
4156
4303
4378
4361
4263
4941
4653
4701
4616
4721
5171
5248
5313
5226
5184
5701
5779
5763
5688
5868
6207
6463
6136
6196
6189
6718
6747
6755
6910
6634
